# Objective value = 38.0
xobj 38.0
x0_r1 -3.242806346256781e-16
x1_r1 -6.461997413944112e-16
x2_r1 -0.0
x3_r1 1.1102230246251565e-16
y0_r1 -0.0
y1_r1 -1.0167309160390159e-15
y2_r1 -1.0167275279072269e-15
y3_r1 -0.0
SH0_r1 -1.0167275279072269e-15
SL0_r1 -0.0
x4_r1 2.5588933099188194e-15
x5_r1 -1.8555476437049495e-15
x6_r1 -3.905621485944533e-15
x7_r1 -3.14123184928794e-15
y4_r1 1.8810907692623502e-17
y5_r1 3.366620540288731e-15
y6_r1 0.0
y7_r1 -0.0
SH1_r1 -0.0
SL1_r1 -0.0
x8_r1 -0.0
x9_r1 -0.0
x10_r1 -0.0
x11_r1 -0.0
y8_r1 3.514170291568641e-17
y9_r1 -7.473541100214143e-17
y10_r1 0.0
y11_r1 -0.0
SH2_r1 -0.0
SL2_r1 -0.0
x12_r1 -1.1102230246251565e-16
x13_r1 -8.326672684688674e-17
x14_r1 -0.0
x15_r1 -3.3306690738754696e-16
y12_r1 -0.0
y13_r1 -0.0
y14_r1 0.0
y15_r1 -0.0
SH3_r1 0.0
SL3_r1 -0.0
x16_r1 -0.0
x17_r1 -0.0
x18_r1 -0.0
x19_r1 -0.0
y16_r1 -0.0
y17_r1 5.551115123125783e-17
y18_r1 5.551115123125783e-17
y19_r1 5.551115123125783e-17
SH4_r1 -0.0
SL4_r1 -0.0
x20_r1 -0.0
x21_r1 -0.0
x22_r1 -0.0
x23_r1 -0.0
y20_r1 -0.0
y21_r1 1.1379786002407855e-15
y22_r1 3.557097921335489e-16
y23_r1 1.1379786002407855e-15
SH5_r1 1.1379786002407855e-15
SL5_r1 -0.0
x24_r1 -0.0
x25_r1 -0.0
x26_r1 -0.0
x27_r1 -0.0
y24_r1 -0.0
y25_r1 0.0
y26_r1 -0.0
y27_r1 0.0
SH6_r1 0.0
SL6_r1 -0.0
x28_r1 -0.0
x29_r1 -0.0
x30_r1 -0.0
x31_r1 4.440892098500626e-16
y28_r1 -0.0
y29_r1 -3.608224830031759e-16
y30_r1 -0.0
y31_r1 0.0
SH7_r1 0.0
SL7_r1 -0.0
x32_r1 -0.0
x33_r1 -0.0
x34_r1 -0.0
x35_r1 -0.0
y32_r1 -0.0
y33_r1 -1.1226913496087398e-16
y34_r1 -1.7124973314408543e-16
y35_r1 -1.126486057212439e-16
SH8_r1 -1.1226913496087398e-16
SL8_r1 -0.0
x36_r1 -5.156465532341059e-16
x37_r1 1.7081605227509122e-16
x38_r1 2.4744204081550425e-16
x39_r1 2.747910406164511e-16
y36_r1 -0.0
y37_r1 -4.336808689942018e-18
y38_r1 -5.323432666903827e-17
y39_r1 -4.336808689942018e-18
SH9_r1 -1.161722627818218e-16
SL9_r1 -0.0
x40_r1 -0.0
x41_r1 -0.0
x42_r1 -0.0
x43_r1 -0.0
y40_r1 -0.0
y41_r1 -0.0
y42_r1 -0.0
y43_r1 -0.0
SH10_r1 -0.0
SL10_r1 -0.0
x44_r1 0.0
x45_r1 0.0
x46_r1 -0.0
x47_r1 -0.0
y44_r1 -0.0
y45_r1 0.0
y46_r1 -0.0
y47_r1 0.0
SH11_r1 0.0
SL11_r1 -0.0
x48_r1 2.220446049250313e-16
x49_r1 1.1102230246251565e-16
x50_r1 -2.220446049250313e-16
x51_r1 -2.220446049250313e-16
y48_r1 -0.0
y49_r1 -0.0
y50_r1 -0.0
y51_r1 1.1102230246251565e-16
SH12_r1 -0.0
SL12_r1 -0.0
x52_r1 -1.8041124150158794e-16
x53_r1 -5.030698080332741e-16
x54_r1 -0.0
x55_r1 0.0
y52_r1 -0.0
y53_r1 -9.783840404509192e-16
y54_r1 2.7755575615628914e-17
y55_r1 0.0
SH13_r1 -0.0
SL13_r1 -0.0
x56_r1 1.4190038033490282e-15
x57_r1 9.332812300755222e-16
x58_r1 0.0
x59_r1 2.5049406993105094e-15
y56_r1 -0.0
y57_r1 -2.5049406993105094e-15
y58_r1 -0.0
y59_r1 0.0
SH14_r1 -0.0
SL14_r1 -0.0
x60_r1 -0.0
x61_r1 -0.0
x62_r1 1.0
x63_r1 1.0
y60_r1 -0.0
y61_r1 -0.0
y62_r1 -0.0
y63_r1 1.0
SH15_r1 1.0
SL15_r1 1.0
y0_r2 -0.0
y1_r2 -0.0
y2_r2 0.0
y3_r2 4.0549161250957866e-17
SH0_r2 1.677802861921318e-17
SL0_r2 -0.0
y4_r2 -0.0
y5_r2 -0.0
y6_r2 -0.0
y7_r2 -9.452887691357992e-18
SH1_r2 -2.7308342219478643e-18
SL1_r2 -0.0
y8_r2 -0.0
y9_r2 0.0
y10_r2 0.0
y11_r2 -0.0
SH2_r2 0.0
SL2_r2 -0.0
y12_r2 -0.0
y13_r2 -0.0
y14_r2 -0.0
y15_r2 -0.0
SH3_r2 0.0
SL3_r2 -0.0
y16_r2 2.63900907420192e-15
y17_r2 3.706504368835781e-15
y18_r2 -0.0
y19_r2 2.4169576930133108e-15
SH4_r2 2.63900907420192e-15
SL4_r2 -0.0
y20_r2 8.81239525796218e-16
y21_r2 1.8908485888147197e-15
y22_r2 -0.0
y23_r2 0.0
SH5_r2 8.81239525796218e-16
SL5_r2 -0.0
y24_r2 9.03682510766668e-17
y25_r2 3.065856081377674e-15
y26_r2 -0.0
y27_r2 2.4661364259308954e-16
SH6_r2 9.03682510766668e-17
SL6_r2 -0.0
y28_r2 -2.005340338229189e-15
y29_r2 1.8908485888147197e-15
y30_r2 -0.0
y31_r2 -1.4986384529180885e-15
SH7_r2 -1.5541496041493463e-15
SL7_r2 -0.0
y32_r2 0.0
y33_r2 -1.107267218452418e-14
y34_r2 -0.0
y35_r2 0.0
SH8_r2 -0.0
SL8_r2 9.888635320743494e-16
y36_r2 0.0
y37_r2 8.432585684413352e-16
y38_r2 -0.0
y39_r2 -0.0
SH9_r2 -0.0
SL9_r2 -0.0
y40_r2 0.0
y41_r2 3.935653886122381e-17
y42_r2 -0.0
y43_r2 9.03682510766668e-17
SH10_r2 -0.0
SL10_r2 -0.0
y44_r2 0.0
y45_r2 -2.498001805406602e-16
y46_r2 -0.0
y47_r2 0.0
SH11_r2 -0.0
SL11_r2 -0.0
y48_r2 -0.0
y49_r2 -0.0
y50_r2 -0.0
y51_r2 -0.0
SH12_r2 0.0
SL12_r2 -0.0
y52_r2 0.0
y53_r2 1.1657341758564144e-15
y54_r2 -0.0
y55_r2 0.0
SH13_r2 -0.0
SL13_r2 -9.992007221626409e-16
y56_r2 -8.860100153551542e-16
y57_r2 -5.589062199162775e-16
y58_r2 -0.0
y59_r2 -1.1084883011491797e-15
SH14_r2 -8.860100153551542e-16
SL14_r2 -5.13694989323632e-16
y60_r2 1.0000000000000013
y61_r2 -2.7372039097112166e-16
y62_r2 -0.0
y63_r2 1.0000000000000009
SH15_r2 1.0000000000000009
SL15_r2 6.34041430469523e-16
y0_r3 -0.0
y1_r3 -0.0
y2_r3 -0.0
y3_r3 -0.0
SH0_r3 -0.0
SL0_r3 -0.0
y4_r3 3.58046925441613e-15
y5_r3 1.1830814106161824e-15
y6_r3 6.661338147750939e-16
y7_r3 3.3792413312028202e-15
SH1_r3 5.551115123125783e-16
SL1_r3 -0.0
y8_r3 0.0
y9_r3 0.0
y10_r3 6.661338147750939e-16
y11_r3 0.0
SH2_r3 -0.0
SL2_r3 -0.0
y12_r3 0.9999999999999967
y13_r3 -1.899942334536442e-15
y14_r3 6.106226635438361e-16
y15_r3 1.0
SH3_r3 1.0
SL3_r3 -0.0
y16_r3 -0.0
y17_r3 0.0
y18_r3 0.0
y19_r3 -0.0
SH4_r3 0.0
SL4_r3 0.0
y20_r3 -0.0
y21_r3 1.5135462327897642e-14
y22_r3 6.674348573820765e-15
y23_r3 -0.0
SH5_r3 6.674348573820765e-15
SL5_r3 -0.0
y24_r3 -0.0
y25_r3 -1.5138931774849596e-14
y26_r3 -1.5135462327897642e-14
y27_r3 -0.0
SH6_r3 -1.5138931774849596e-14
SL6_r3 -0.0
y28_r3 -0.0
y29_r3 0.0
y30_r3 0.0
y31_r3 -0.0
SH7_r3 -2.7372039097112166e-16
SL7_r3 -0.0
y32_r3 0.0
y33_r3 0.0
y34_r3 -0.0
y35_r3 -0.0
SH8_r3 -0.0
SL8_r3 0.0
y36_r3 -0.0
y37_r3 -0.0
y38_r3 -0.0
y39_r3 -0.0
SH9_r3 -0.0
SL9_r3 -0.0
y40_r3 -0.0
y41_r3 -0.0
y42_r3 0.0
y43_r3 0.0
SH10_r3 -0.0
SL10_r3 0.0
y44_r3 -0.0
y45_r3 -0.0
y46_r3 -0.0
y47_r3 -0.0
SH11_r3 -0.0
SL11_r3 0.0
y48_r3 -9.452887691357992e-18
y49_r3 -0.0
y50_r3 -0.0
y51_r3 -6.088879400678593e-16
SH12_r3 -1.9786689647860456e-17
SL12_r3 -0.0
y52_r3 0.0
y53_r3 -9.460985326333743e-16
y54_r3 0.0
y55_r3 0.0
SH13_r3 -0.0
SL13_r3 -0.0
y56_r3 -4.614364446098307e-15
y57_r3 -2.3626933742804113e-15
y58_r3 0.0
y59_r3 0.0
SH14_r3 -0.0
SL14_r3 -0.0
y60_r3 1.0
y61_r3 2.933308977659532e-16
y62_r3 0.0
y63_r3 1.000000000000001
SH15_r3 1.0
SL15_r3 -1.231653667943533e-15
y0_r4 0.0
y1_r4 1.6237011735142914e-15
y2_r4 1.0000000000000038
y3_r4 1.0
SH0_r4 1.0
SL0_r4 -0.0
y4_r4 -0.0
y5_r4 -0.0
y6_r4 -0.0
y7_r4 -0.0
SH1_r4 -0.0
SL1_r4 -0.0
y8_r4 0.0
y9_r4 0.0
y10_r4 -0.0
y11_r4 0.0
SH2_r4 0.0
SL2_r4 -0.0
y12_r4 0.0
y13_r4 1.6237011735142914e-15
y14_r4 1.0000000000000038
y15_r4 0.9999999999999989
SH3_r4 1.0
SL3_r4 -0.0
y16_r4 -0.0
y17_r4 2.220446049250313e-16
y18_r4 -4.3021142204224816e-16
y19_r4 0.0
SH4_r4 -0.0
SL4_r4 -0.0
y20_r4 -0.0
y21_r4 1.5133727604421665e-14
y22_r4 0.0
y23_r4 -0.0
SH5_r4 0.0
SL5_r4 -0.0
y24_r4 -0.0
y25_r4 -0.0
y26_r4 0.0
y27_r4 0.0
SH6_r4 0.0
SL6_r4 -0.0
y28_r4 -0.0
y29_r4 -0.0
y30_r4 -0.0
y31_r4 -0.0
SH7_r4 -0.0
SL7_r4 -0.0
y32_r4 4.85722573273506e-17
y33_r4 7.216449660063518e-16
y34_r4 0.0
y35_r4 -0.0
SH8_r4 6.661338147750939e-16
SL8_r4 -1.1102230246251565e-16
y36_r4 1.0408340855860843e-17
y37_r4 -8.512288096618192e-15
y38_r4 0.0
y39_r4 -0.0
SH9_r4 -0.0
SL9_r4 8.493206138382448e-15
y40_r4 -0.0
y41_r4 -0.0
y42_r4 -0.0
y43_r4 -0.0
SH10_r4 -0.0
SL10_r4 0.0
y44_r4 0.0
y45_r4 0.0
y46_r4 0.0
y47_r4 -0.0
SH11_r4 -0.0
SL11_r4 0.0
y48_r4 -2.717010644248674e-16
y49_r4 0.0
y50_r4 1.0
y51_r4 1.0
SH12_r4 1.0
SL12_r4 -0.0
y52_r4 -0.0
y53_r4 -0.0
y54_r4 -0.0
y55_r4 -0.0
SH13_r4 -0.0
SL13_r4 -0.0
y56_r4 -0.0
y57_r4 -0.0
y58_r4 -0.0
y59_r4 -0.0
SH14_r4 -0.0
SL14_r4 -0.0
y60_r4 6.149594722337781e-16
y61_r4 0.0
y62_r4 1.0
y63_r4 1.0
SH15_r4 1.0
SL15_r4 -0.0
y0_r5 0.0
y1_r5 -0.0
y2_r5 -0.0
y3_r5 0.0
SH0_r5 -0.0
SL0_r5 0.0
y4_r5 -0.0
y5_r5 -0.0
y6_r5 -0.0
y7_r5 -0.0
SH1_r5 -0.0
SL1_r5 -0.0
y8_r5 6.938893903907228e-18
y9_r5 -0.0
y10_r5 -0.0
y11_r5 -6.938893903907228e-18
SH2_r5 -0.0
SL2_r5 -0.0
y12_r5 4.088526392442837e-16
y13_r5 -0.0
y14_r5 -0.0
y15_r5 -0.0
SH3_r5 -0.0
SL3_r5 -0.0
y16_r5 0.0
y17_r5 1.842276331487369e-15
y18_r5 0.0
y19_r5 -0.0
SH4_r5 1.6202317265623378e-15
SL4_r5 0.0
y20_r5 9.29638310775971e-15
y21_r5 4.625206467823162e-15
y22_r5 -0.0
y23_r5 -0.0
SH5_r5 4.625206467823162e-15
SL5_r5 5.978724459954066e-15
y24_r5 -0.0
y25_r5 0.0
y26_r5 -0.0
y27_r5 -0.0
SH6_r5 -0.0
SL6_r5 -0.0
y28_r5 -9.29638310775971e-15
y29_r5 0.0
y30_r5 -0.0
y31_r5 -0.0
SH7_r5 -0.0
SL7_r5 -0.0
y32_r5 -2.220446049250313e-16
y33_r5 1.0000000000000038
y34_r5 0.0
y35_r5 -0.0
SH8_r5 1.0000000000000038
SL8_r5 0.0
y36_r5 3.929148673087468e-16
y37_r5 0.0
y38_r5 -3.7903707950093235e-16
y39_r5 0.0
SH9_r5 -0.0
SL9_r5 -0.0
y40_r5 0.0
y41_r5 0.0
y42_r5 -0.0
y43_r5 0.0
SH10_r5 -0.0
SL10_r5 -0.0
y44_r5 -3.3306690738754696e-16
y45_r5 0.9999999999999998
y46_r5 0.0
y47_r5 0.0
SH11_r5 1.0
SL11_r5 0.0
y48_r5 0.0
y49_r5 1.0
y50_r5 0.0
y51_r5 4.805184028455756e-16
SH12_r5 1.0
SL12_r5 -6.192962809237201e-16
y52_r5 -0.0
y53_r5 0.0
y54_r5 0.0
y55_r5 0.0
SH13_r5 -0.0
SL13_r5 -0.0
y56_r5 -0.0
y57_r5 -0.0
y58_r5 -0.0
y59_r5 -0.0
SH14_r5 -0.0
SL14_r5 -0.0
y60_r5 0.0
y61_r5 1.0
y62_r5 0.0
y63_r5 0.0
SH15_r5 1.0
SL15_r5 -0.0
y0_r6 -0.0
y1_r6 8.977193988179977e-17
y2_r6 -0.0
y3_r6 8.955509944730267e-17
SH0_r6 3.426078865054194e-17
SL0_r6 -0.0
y4_r6 -0.0
y5_r6 0.0
y6_r6 -0.0
y7_r6 9.29638310775971e-15
SH1_r6 -0.0
SL1_r6 -0.0
y8_r6 -0.0
y9_r6 -3.988237691487928e-16
y10_r6 -0.0
y11_r6 -0.0
SH2_r6 -3.3306690738754696e-16
SL2_r6 -0.0
y12_r6 -0.0
y13_r6 0.0
y14_r6 -0.0
y15_r6 0.0
SH3_r6 0.0
SL3_r6 -0.0
y16_r6 -0.0
y17_r6 -0.0
y18_r6 -0.0
y19_r6 -0.0
SH4_r6 -0.0
SL4_r6 -0.0
y20_r6 0.0
y21_r6 1.6202317265623378e-15
y22_r6 0.0
y23_r6 3.238728729648699e-15
SH5_r6 1.842276331487369e-15
SL5_r6 -0.0
y24_r6 0.0
y25_r6 0.9999999999999999
y26_r6 0.0
y27_r6 -3.238728729648699e-15
SH6_r6 0.9999999999999999
SL6_r6 -0.0
y28_r6 0.0
y29_r6 1.0
y30_r6 0.0
y31_r6 0.0
SH7_r6 1.0
SL7_r6 0.0
y32_r6 -0.0
y33_r6 -0.0
y34_r6 -0.0
y35_r6 -0.0
SH8_r6 -0.0
SL8_r6 -0.0
y36_r6 -0.0
y37_r6 -0.0
y38_r6 -0.0
y39_r6 -0.0
SH9_r6 0.0
SL9_r6 -0.0
y40_r6 -0.0
y41_r6 -1.8323016715005025e-17
y42_r6 -0.0
y43_r6 -0.0
SH10_r6 -0.0
SL10_r6 -0.0
y44_r6 -0.0
y45_r6 0.0
y46_r6 -0.0
y47_r6 -0.0
SH11_r6 -0.0
SL11_r6 -0.0
y48_r6 0.0
y49_r6 0.0
y50_r6 1.8583225236401546e-16
y51_r6 -4.839878497975292e-16
SH12_r6 0.0
SL12_r6 -0.0
y52_r6 -0.0
y53_r6 -0.0
y54_r6 -0.0
y55_r6 -0.0
SH13_r6 -0.0
SL13_r6 -0.0
y56_r6 0.0
y57_r6 1.333297621614049e-16
y58_r6 0.0
y59_r6 0.0
SH14_r6 -0.0
SL14_r6 -0.0
y60_r6 -5.048045315092509e-16
y61_r6 7.086345399365257e-16
y62_r6 0.0
y63_r6 -5.0133508455729725e-16
SH15_r6 -0.0
SL15_r6 -0.0
y0_r7 -0.0
y1_r7 -0.0
y2_r7 -0.0
y3_r7 -0.0
SH0_r7 -0.0
SL0_r7 -0.0
y4_r7 -3.0314292742694704e-16
y5_r7 1.6761765586625899e-16
y6_r7 1.682681771697503e-16
y7_r7 0.0
SH1_r7 -0.0
SL1_r7 -1.6740081543176188e-16
y8_r7 -0.0
y9_r7 -0.0
y10_r7 -0.0
y11_r7 -0.0
SH2_r7 -0.0
SL2_r7 -0.0
y12_r7 -3.0314292742694704e-16
y13_r7 3.3089850304257595e-16
y14_r7 1.682681771697503e-16
y15_r7 -0.0
SH3_r7 -0.0
SL3_r7 -3.400058012914542e-16
y16_r7 -1.2532292911759946e-15
y17_r7 1.8629845929818423e-15
y18_r7 0.0
y19_r7 -0.0
SH4_r7 -0.0
SL4_r7 3.2912989824870897e-16
y20_r7 -3.307900828253274e-16
y21_r7 0.9999999999999999
y22_r7 0.0
y23_r7 0.0
SH5_r7 1.0
SL5_r7 0.999999999999999
y24_r7 -1.093959992037874e-16
y25_r7 -1.454999315475547e-16
y26_r7 -0.0
y27_r7 -0.0
SH6_r7 0.0
SL6_r7 1.8323016715005025e-17
y28_r7 5.043572981131006e-16
y29_r7 7.086345399365257e-16
y30_r7 -0.0
y31_r7 -0.0
SH7_r7 7.086345399365257e-16
SL7_r7 5.663872149064275e-16
y32_r7 -0.0
y33_r7 -0.0
y34_r7 -0.0
y35_r7 -0.0
SH8_r7 -0.0
SL8_r7 -0.0
y36_r7 0.0
y37_r7 0.0
y38_r7 0.0
y39_r7 0.0
SH9_r7 -0.0
SL9_r7 0.0
y40_r7 -0.0
y41_r7 -0.0
y42_r7 -0.0
y43_r7 -0.0
SH10_r7 -0.0
SL10_r7 -0.0
y44_r7 0.0
y45_r7 -1.710871028182126e-16
y46_r7 0.0
y47_r7 0.0
SH11_r7 -0.0
SL11_r7 -1.9992688060632702e-16
y48_r7 0.0
y49_r7 1.8979446920336374e-14
y50_r7 -0.0
y51_r7 0.0
SH12_r7 0.0
SL12_r7 -0.0
y52_r7 0.0
y53_r7 8.096821824121747e-16
y54_r7 0.0
y55_r7 0.0
SH13_r7 -0.0
SL13_r7 -0.0
y56_r7 -0.0
y57_r7 -0.0
y58_r7 -0.0
y59_r7 -0.0
SH14_r7 -0.0
SL14_r7 -0.0
y60_r7 0.0
y61_r7 0.0
y62_r7 0.0
y63_r7 0.0
SH15_r7 -4.77048955893622e-16
SL15_r7 -0.0
y0_r8 -2.654126918244515e-16
y1_r8 -3.0314292742694704e-16
y2_r8 -0.0
y3_r8 -1.966742740888705e-16
SH0_r8 -3.0314292742694704e-16
SL0_r8 -0.0
y4_r8 -1.1462727468602996e-15
y5_r8 8.442682317144623e-16
y6_r8 0.0
y7_r8 0.0
SH1_r8 -0.0
SL1_r8 -4.057152292076538e-16
y8_r8 0.0
y9_r8 0.0
y10_r8 -0.0
y11_r8 0.0
SH2_r8 0.0
SL2_r8 -0.0
y12_r8 0.0
y13_r8 0.0
y14_r8 -0.0
y15_r8 -0.0
SH3_r8 -0.0
SL3_r8 -0.0
y16_r8 -0.0
y17_r8 1.8323016715005025e-16
y18_r8 -0.0
y19_r8 -0.0
SH4_r8 1.7629127324614302e-16
SL4_r8 -0.0
y20_r8 3.574397722250211e-15
y21_r8 1.0000000000000002
y22_r8 2.504452808332891e-15
y23_r8 0.9999999999999997
SH5_r8 1.0
SL5_r8 7.652732614271684e-15
y24_r8 -5.288196096298048e-17
y25_r8 -1.0690233420707074e-16
y26_r8 -4.954803928258755e-17
y27_r8 -0.0
SH6_r8 -1.0646865333807654e-16
SL6_r8 -0.0
y28_r8 -2.4878103049852385e-14
y29_r8 2.53220838394852e-15
y30_r8 2.504886489201885e-15
y31_r8 -0.0
SH7_r8 0.0
SL7_r8 8.101158632811689e-16
y32_r8 1.682681771697503e-16
y33_r8 1.3140530330524314e-16
y34_r8 -0.0
y35_r8 -0.0
SH8_r8 1.682681771697503e-16
SL8_r8 -0.0
y36_r8 0.0
y37_r8 0.0
y38_r8 0.0
y39_r8 0.0
SH9_r8 -0.0
SL9_r8 0.0
y40_r8 0.0
y41_r8 0.0
y42_r8 -0.0
y43_r8 0.0
SH10_r8 0.0
SL10_r8 -0.0
y44_r8 0.0
y45_r8 0.0
y46_r8 -0.0
y47_r8 -0.0
SH11_r8 -0.0
SL11_r8 -0.0
y48_r8 0.0
y49_r8 0.0
y50_r8 0.0
y51_r8 0.0
SH12_r8 0.0
SL12_r8 -0.0
y52_r8 -0.0
y53_r8 -0.0
y54_r8 -0.0
y55_r8 -0.0
SH13_r8 -0.0
SL13_r8 0.0
y56_r8 0.0
y57_r8 0.0
y58_r8 -0.0
y59_r8 0.0
SH14_r8 -0.0
SL14_r8 0.0
y60_r8 0.0
y61_r8 0.0
y62_r8 0.0
y63_r8 0.0
SH15_r8 -0.0
SL15_r8 0.0
y0_r9 -0.0
y1_r9 8.758727250424148e-16
y2_r9 -0.0
y3_r9 0.0
SH0_r9 -0.0
SL0_r9 -0.0
y4_r9 -0.0
y5_r9 1.637492225148307e-14
y6_r9 -0.0
y7_r9 3.576132445726188e-15
SH1_r9 4.0245584642661925e-15
SL1_r9 -0.0
y8_r9 -0.0
y9_r9 -6.272109567828643e-17
y10_r9 -0.0
y11_r9 1.441988889405721e-16
SH2_r9 0.0
SL2_r9 -0.0
y12_r9 0.0
y13_r9 0.0
y14_r9 0.0
y15_r9 -0.0
SH3_r9 0.0
SL3_r9 -0.0
y16_r9 -0.0
y17_r9 0.0
y18_r9 -0.0
y19_r9 3.0357660829594124e-16
SH4_r9 0.0
SL4_r9 -0.0
y20_r9 -0.0
y21_r9 0.9999999999999993
y22_r9 -0.0
y23_r9 0.9999999999999998
SH5_r9 1.0
SL5_r9 -0.0
y24_r9 -0.0
y25_r9 3.2851325826310784e-17
y26_r9 -0.0
y27_r9 0.0
SH6_r9 -0.0
SL6_r9 -0.0
y28_r9 -0.0
y29_r9 0.0
y30_r9 -0.0
y31_r9 0.0
SH7_r9 0.0
SL7_r9 -0.0
y32_r9 0.0
y33_r9 0.0
y34_r9 0.0
y35_r9 0.0
SH8_r9 -0.0
SL8_r9 -0.0
y36_r9 -0.0
y37_r9 3.2331179834060864e-15
y38_r9 -0.0
y39_r9 -0.0
SH9_r9 2.504886489201885e-15
SL9_r9 -0.0
y40_r9 -0.0
y41_r9 0.0
y42_r9 -0.0
y43_r9 0.0
SH10_r9 0.0
SL10_r9 -0.0
y44_r9 0.0
y45_r9 0.0
y46_r9 0.0
y47_r9 -0.0
SH11_r9 0.0
SL11_r9 -0.0
y48_r9 -0.0
y49_r9 0.0
y50_r9 -0.0
y51_r9 0.0
SH12_r9 -0.0
SL12_r9 -0.0
y52_r9 -0.0
y53_r9 0.9999999999999997
y54_r9 3.3306690738754696e-16
y55_r9 1.0
SH13_r9 1.0
SL13_r9 -0.0
y56_r9 -0.0
y57_r9 0.0
y58_r9 -0.0
y59_r9 0.0
SH14_r9 0.0
SL14_r9 -0.0
y60_r9 0.0
y61_r9 0.0
y62_r9 -0.0
y63_r9 -0.0
SH15_r9 0.0
SL15_r9 -0.0
